NAME 
ROWS
 N  OBJ
 L  R0      
 L  R1      
 L  R2      
 E  R3      
 E  R4      
 E  R5      
 E  R6      
 E  R7      
 E  R8      
 E  R9      
 E  R10     
 E  R11     
 E  R12     
 E  R13     
 E  R14     
 E  R15     
 E  R16     
 E  R17     
 E  R18     
 E  R19     
 E  R20     
 E  R21     
 E  R22     
COLUMNS
    MARKER    'MARKER'                 'INTORG'
    I0(11)    OBJ       128
    I0(11)    R0        -129
    I0(11)    R1        125
    I0(11)    R2        -41
    I0(11)    R4        14
    I0(11)    R5        17
    I0(11)    R8        12
    I0(11)    R9        14
    I0(11)    R10       1
    I0(11)    R11       6
    I0(11)    R12       1
    I0(11)    R22       1
    I1(12)    OBJ       6
    I1(12)    R0        -159
    I1(12)    R1        76
    I1(12)    R2        -109
    I1(12)    R3        -1
    I1(12)    R5        7
    I1(12)    R6        16
    I1(12)    R8        16
    I1(12)    R9        12
    I1(12)    R10       5
    I1(12)    R11       8
    I1(12)    R12       2
    I1(12)    R22       1
    I2(9)     OBJ       -146
    I2(9)     R0        -196
    I2(9)     R1        -179
    I2(9)     R2        -16
    I2(9)     R3        14
    I2(9)     R5        7
    I2(9)     R6        13
    I2(9)     R8        8
    I2(9)     R10       7
    I2(9)     R22       1
    I3(11)    OBJ       -77
    I3(11)    R0        72
    I3(11)    R1        -122
    I3(11)    R2        -138
    I3(11)    R3        13
    I3(11)    R6        9
    I3(11)    R7        8
    I3(11)    R8        11
    I3(11)    R9        3
    I3(11)    R11       1
    I3(11)    R12       6
    I3(11)    R22       1
    I4(10)    OBJ       84
    I4(10)    R0        -8
    I4(10)    R1        148
    I4(10)    R2        55
    I4(10)    R3        6
    I4(10)    R7        7
    I4(10)    R8        1
    I4(10)    R9        11
    I4(10)    R10       14
    I4(10)    R11       11
    I4(10)    R22       1
    I5(9)     OBJ       -22
    I5(9)     R0        64
    I5(9)     R1        -148
    I5(9)     R2        -115
    I5(9)     R4        9
    I5(9)     R6        17
    I5(9)     R7        -1
    I5(9)     R8        16
    I5(9)     R9        11
    I5(9)     R22       1
    I6(9)     OBJ       -17
    I6(9)     R0        -137
    I6(9)     R1        -59
    I6(9)     R2        -103
    I6(9)     R5        6
    I6(9)     R7        16
    I6(9)     R9        17
    I6(9)     R10       10
    I6(9)     R12       19
    I6(9)     R22       1
    I7(11)    OBJ       -186
    I7(11)    R0        91
    I7(11)    R1        -176
    I7(11)    R2        46
    I7(11)    R3        8
    I7(11)    R4        7
    I7(11)    R6        3
    I7(11)    R9        13
    I7(11)    R10       10
    I7(11)    R11       16
    I7(11)    R12       19
    I7(11)    R22       1
    I8(10)    OBJ       -185
    I8(10)    R0        186
    I8(10)    R1        -121
    I8(10)    R2        -66
    I8(10)    R3        14
    I8(10)    R4        19
    I8(10)    R5        8
    I8(10)    R6        14
    I8(10)    R7        1
    I8(10)    R12       13
    I8(10)    R22       1
    I9(12)    OBJ       -109
    I9(12)    R0        -148
    I9(12)    R1        -176
    I9(12)    R2        93
    I9(12)    R3        13
    I9(12)    R4        10
    I9(12)    R5        8
    I9(12)    R6        7
    I9(12)    R8        7
    I9(12)    R9        19
    I9(12)    R11       8
    I9(12)    R12       -1
    I9(12)    R22       1
    MARKER    'MARKER'                 'INTEND'
    C10(16)   OBJ       -8
    C10(16)   R0        1
    C10(16)   R1        7
    C10(16)   R2        1
    C10(16)   R3        16
    C10(16)   R4        15
    C10(16)   R6        12
    C10(16)   R8        15
    C10(16)   R9        9
    C10(16)   R11       12
    C10(16)   R12       15
    C10(16)   R13       -1
    C10(16)   R14       16
    C10(16)   R15       15
    C10(16)   R17       10
    C10(16)   R19       9
    C10(16)   R20       5
    C11(17)   OBJ       1
    C11(17)   R0        7
    C11(17)   R1        2
    C11(17)   R2        -10
    C11(17)   R3        3
    C11(17)   R4        7
    C11(17)   R5        19
    C11(17)   R6        5
    C11(17)   R7        1
    C11(17)   R8        10
    C11(17)   R9        6
    C11(17)   R11       2
    C11(17)   R13       14
    C11(17)   R14       15
    C11(17)   R16       9
    C11(17)   R17       17
    C11(17)   R20       19
    C11(17)   R21       17
    C12(15)   OBJ       -9
    C12(15)   R0        -4
    C12(15)   R2        -2
    C12(15)   R3        10
    C12(15)   R5        3
    C12(15)   R7        12
    C12(15)   R8        13
    C12(15)   R9        8
    C12(15)   R10       14
    C12(15)   R11       5
    C12(15)   R13       18
    C12(15)   R14       12
    C12(15)   R15       2
    C12(15)   R17       9
    C12(15)   R19       2
    C12(15)   R20       14
    C13(13)   OBJ       4
    C13(13)   R0        5
    C13(13)   R1        -9
    C13(13)   R2        -3
    C13(13)   R3        4
    C13(13)   R5        10
    C13(13)   R9        10
    C13(13)   R10       13
    C13(13)   R12       12
    C13(13)   R15       2
    C13(13)   R17       19
    C13(13)   R18       1
    C13(13)   R19       14
    C13(13)   R21       2
    C14(16)   OBJ       2
    C14(16)   R0        9
    C14(16)   R1        1
    C14(16)   R2        -3
    C14(16)   R4        14
    C14(16)   R5        7
    C14(16)   R6        18
    C14(16)   R7        5
    C14(16)   R8        16
    C14(16)   R9        19
    C14(16)   R11       3
    C14(16)   R14       1
    C14(16)   R15       3
    C14(16)   R16       13
    C14(16)   R17       17
    C14(16)   R20       -1
    C14(16)   R21       1
    C15(16)   OBJ       -3
    C15(16)   R0        -6
    C15(16)   R1        6
    C15(16)   R2        -3
    C15(16)   R5        6
    C15(16)   R6        18
    C15(16)   R8        17
    C15(16)   R9        9
    C15(16)   R10       15
    C15(16)   R12       10
    C15(16)   R13       -1
    C15(16)   R14       13
    C15(16)   R15       12
    C15(16)   R17       5
    C15(16)   R18       2
    C15(16)   R20       9
    C15(16)   R21       12
    C16(18)   OBJ       3
    C16(18)   R0        3
    C16(18)   R1        -1
    C16(18)   R2        4
    C16(18)   R3        11
    C16(18)   R4        15
    C16(18)   R5        16
    C16(18)   R6        16
    C16(18)   R8        -1
    C16(18)   R9        16
    C16(18)   R10       10
    C16(18)   R11       9
    C16(18)   R12       3
    C16(18)   R14       6
    C16(18)   R15       18
    C16(18)   R16       16
    C16(18)   R18       5
    C16(18)   R19       9
    C16(18)   R21       6
    C17(12)   OBJ       -10
    C17(12)   R0        -6
    C17(12)   R1        -5
    C17(12)   R2        6
    C17(12)   R4        9
    C17(12)   R7        17
    C17(12)   R9        13
    C17(12)   R12       16
    C17(12)   R15       5
    C17(12)   R16       8
    C17(12)   R17       12
    C17(12)   R18       10
    C17(12)   R21       5
    C18(15)   R0        4
    C18(15)   R1        -6
    C18(15)   R2        -10
    C18(15)   R3        11
    C18(15)   R4        6
    C18(15)   R5        7
    C18(15)   R6        8
    C18(15)   R9        10
    C18(15)   R10       9
    C18(15)   R11       9
    C18(15)   R13       17
    C18(15)   R16       10
    C18(15)   R17       11
    C18(15)   R18       -1
    C18(15)   R21       19
    C19(17)   OBJ       -9
    C19(17)   R0        -5
    C19(17)   R1        -5
    C19(17)   R2        4
    C19(17)   R3        7
    C19(17)   R6        10
    C19(17)   R8        13
    C19(17)   R10       -1
    C19(17)   R11       7
    C19(17)   R12       8
    C19(17)   R13       17
    C19(17)   R15       12
    C19(17)   R16       9
    C19(17)   R17       7
    C19(17)   R18       17
    C19(17)   R19       -1
    C19(17)   R20       6
    C19(17)   R21       17
    C20(1)    R3        1
    C21(1)    R4        1
    C22(1)    R5        1
    C23(1)    R6        1
    C24(1)    R7        1
    C25(1)    R8        1
    C26(1)    R9        1
    C27(1)    R10       1
    C28(1)    R11       1
    C29(1)    R12       1
    C30(1)    R13       1
    C31(1)    R14       1
    C32(1)    R15       1
    C33(1)    R16       1
    C34(1)    R17       1
    C35(1)    R18       1
    C36(1)    R19       1
    C37(1)    R20       1
    C38(1)    R21       1
    C39(1)    R22       1
RHS
    RHS1      R0        5.3149793388429757e+01
    RHS1      R1        -494.827479338843
    RHS1      R2        -1.7050619834710744e+01
    RHS1      R3        53
    RHS1      R4        59
    RHS1      R5        77
    RHS1      R6        63
    RHS1      R7        76
    RHS1      R8        72
    RHS1      R9        68
    RHS1      R10       88
    RHS1      R11       95
    RHS1      R12       89
    RHS1      R13       97
    RHS1      R14       74
    RHS1      R15       88
    RHS1      R16       57
    RHS1      R17       57
    RHS1      R18       89
    RHS1      R19       72
    RHS1      R20       72
    RHS1      R21       54
    RHS1      R22       3
BOUNDS
 UP BND1      I0(11)    1
 UP BND1      I1(12)    1
 UP BND1      I2(9)     1
 UP BND1      I3(11)    1
 UP BND1      I4(10)    1
 UP BND1      I5(9)     1
 UP BND1      I6(9)     1
 UP BND1      I7(11)    1
 UP BND1      I8(10)    1
 UP BND1      I9(12)    1
ENDATA
